5 5
2 29 3 95 4 30 1 99 0 25
4 68 1 62 3 38 2 17 0 74
0 1 1 18 4 63 2 46 3 19
0 50 2 96 4 54 1 31 3 97
2 86 0 65 4 46 3 35 1 49
-1
0 1 5
0 2 5
0 1 2 4 5
0 3 4 5
0 1 2 4 5
-2
38 444
160 319
1 26 193 189
207 257 338
133 176 323 425

408 6
10 15 21 9 4
11 6 3 18 24
0 20 16 8 13
1 7 23 14 19
5 12 2 22 17
